; benchmark generated from python API
(set-info :status unknown)
(declare-fun cell_1_8 () Int)
(declare-fun cell_2_2 () Int)
(declare-fun cell_3_4 () Int)
(declare-fun cell_4_9 () Int)
(declare-fun cell_1_1 () Int)
(declare-fun cell_2_1 () Int)
(declare-fun cell_3_1 () Int)
(declare-fun cell_4_1 () Int)
(declare-fun cell_5_1 () Int)
(declare-fun cell_6_1 () Int)
(declare-fun cell_7_1 () Int)
(declare-fun cell_8_1 () Int)
(declare-fun cell_9_1 () Int)
(declare-fun cell_1_2 () Int)
(declare-fun cell_3_2 () Int)
(declare-fun cell_4_2 () Int)
(declare-fun cell_5_2 () Int)
(declare-fun cell_6_2 () Int)
(declare-fun cell_7_2 () Int)
(declare-fun cell_8_2 () Int)
(declare-fun cell_9_2 () Int)
(declare-fun cell_1_3 () Int)
(declare-fun cell_2_3 () Int)
(declare-fun cell_3_3 () Int)
(declare-fun cell_4_3 () Int)
(declare-fun cell_5_3 () Int)
(declare-fun cell_6_3 () Int)
(declare-fun cell_7_3 () Int)
(declare-fun cell_8_3 () Int)
(declare-fun cell_9_3 () Int)
(declare-fun cell_1_4 () Int)
(declare-fun cell_2_4 () Int)
(declare-fun cell_4_4 () Int)
(declare-fun cell_5_4 () Int)
(declare-fun cell_6_4 () Int)
(declare-fun cell_7_4 () Int)
(declare-fun cell_8_4 () Int)
(declare-fun cell_9_4 () Int)
(declare-fun cell_1_5 () Int)
(declare-fun cell_2_5 () Int)
(declare-fun cell_3_5 () Int)
(declare-fun cell_4_5 () Int)
(declare-fun cell_5_5 () Int)
(declare-fun cell_6_5 () Int)
(declare-fun cell_7_5 () Int)
(declare-fun cell_8_5 () Int)
(declare-fun cell_9_5 () Int)
(declare-fun cell_1_6 () Int)
(declare-fun cell_2_6 () Int)
(declare-fun cell_3_6 () Int)
(declare-fun cell_4_6 () Int)
(declare-fun cell_5_6 () Int)
(declare-fun cell_6_6 () Int)
(declare-fun cell_7_6 () Int)
(declare-fun cell_8_6 () Int)
(declare-fun cell_9_6 () Int)
(declare-fun cell_1_7 () Int)
(declare-fun cell_2_7 () Int)
(declare-fun cell_3_7 () Int)
(declare-fun cell_4_7 () Int)
(declare-fun cell_5_7 () Int)
(declare-fun cell_6_7 () Int)
(declare-fun cell_7_7 () Int)
(declare-fun cell_8_7 () Int)
(declare-fun cell_9_7 () Int)
(declare-fun cell_2_8 () Int)
(declare-fun cell_3_8 () Int)
(declare-fun cell_4_8 () Int)
(declare-fun cell_5_8 () Int)
(declare-fun cell_6_8 () Int)
(declare-fun cell_7_8 () Int)
(declare-fun cell_8_8 () Int)
(declare-fun cell_9_8 () Int)
(declare-fun cell_1_9 () Int)
(declare-fun cell_2_9 () Int)
(declare-fun cell_3_9 () Int)
(declare-fun cell_5_9 () Int)
(declare-fun cell_6_9 () Int)
(declare-fun cell_7_9 () Int)
(declare-fun cell_8_9 () Int)
(declare-fun cell_9_9 () Int)
(assert
 (= cell_1_8 1))
(assert
 (= cell_2_2 1))
(assert
 (= cell_3_4 1))
(assert
 (= cell_4_9 1))
(assert
 (let (($x2443 (= cell_1_1 9)))
 (let (($x1833 (= cell_1_1 8)))
 (let (($x4683 (= cell_1_1 7)))
 (let (($x5148 (= cell_1_1 6)))
 (let (($x1580 (= cell_1_1 5)))
 (let (($x3452 (= cell_1_1 4)))
 (let (($x5183 (= cell_1_1 3)))
 (let (($x1194 (= cell_1_1 2)))
 (let (($x5785 (= cell_1_1 1)))
 (or $x5785 $x1194 $x5183 $x3452 $x1580 $x5148 $x4683 $x1833 $x2443)))))))))))
(assert
 (let (($x2128 (= cell_2_1 9)))
 (let (($x2747 (= cell_2_1 8)))
 (let (($x1929 (= cell_2_1 7)))
 (let (($x6233 (= cell_2_1 6)))
 (let (($x5186 (= cell_2_1 5)))
 (let (($x2546 (= cell_2_1 4)))
 (let (($x6579 (= cell_2_1 3)))
 (let (($x34 (= cell_2_1 2)))
 (let (($x2665 (= cell_2_1 1)))
 (or $x2665 $x34 $x6579 $x2546 $x5186 $x6233 $x1929 $x2747 $x2128)))))))))))
(assert
 (let (($x3796 (= cell_3_1 9)))
 (let (($x1768 (= cell_3_1 8)))
 (let (($x208 (= cell_3_1 7)))
 (let (($x6526 (= cell_3_1 6)))
 (let (($x265 (= cell_3_1 5)))
 (let (($x2154 (= cell_3_1 4)))
 (let (($x6220 (= cell_3_1 3)))
 (let (($x2675 (= cell_3_1 2)))
 (let (($x3543 (= cell_3_1 1)))
 (or $x3543 $x2675 $x6220 $x2154 $x265 $x6526 $x208 $x1768 $x3796)))))))))))
(assert
 (let (($x4716 (= cell_4_1 9)))
 (let (($x4673 (= cell_4_1 8)))
 (let (($x5080 (= cell_4_1 7)))
 (let (($x5251 (= cell_4_1 6)))
 (let (($x2266 (= cell_4_1 5)))
 (let (($x4837 (= cell_4_1 4)))
 (let (($x724 (= cell_4_1 3)))
 (let (($x305 (= cell_4_1 2)))
 (let (($x1604 (= cell_4_1 1)))
 (or $x1604 $x305 $x724 $x4837 $x2266 $x5251 $x5080 $x4673 $x4716)))))))))))
(assert
 (let (($x3433 (= cell_5_1 1)))
 (or $x3433 (= cell_5_1 2) (= cell_5_1 3) (= cell_5_1 4) (= cell_5_1 5) (= cell_5_1 6) (= cell_5_1 7) (= cell_5_1 8) (= cell_5_1 9))))
(assert
 (or (= cell_6_1 1) (= cell_6_1 2) (= cell_6_1 3) (= cell_6_1 4) (= cell_6_1 5) (= cell_6_1 6) (= cell_6_1 7) (= cell_6_1 8) (= cell_6_1 9)))
(assert
 (or (= cell_7_1 1) (= cell_7_1 2) (= cell_7_1 3) (= cell_7_1 4) (= cell_7_1 5) (= cell_7_1 6) (= cell_7_1 7) (= cell_7_1 8) (= cell_7_1 9)))
(assert
 (let (($x2129 (= cell_8_1 1)))
 (or $x2129 (= cell_8_1 2) (= cell_8_1 3) (= cell_8_1 4) (= cell_8_1 5) (= cell_8_1 6) (= cell_8_1 7) (= cell_8_1 8) (= cell_8_1 9))))
(assert
 (or (= cell_9_1 1) (= cell_9_1 2) (= cell_9_1 3) (= cell_9_1 4) (= cell_9_1 5) (= cell_9_1 6) (= cell_9_1 7) (= cell_9_1 8) (= cell_9_1 9)))
(assert
 (let (($x2355 (= cell_1_2 9)))
 (let (($x2738 (= cell_1_2 8)))
 (let (($x3664 (= cell_1_2 7)))
 (let (($x2142 (= cell_1_2 6)))
 (let (($x2497 (= cell_1_2 5)))
 (let (($x6611 (= cell_1_2 4)))
 (let (($x6386 (= cell_1_2 3)))
 (let (($x3371 (= cell_1_2 2)))
 (let (($x3345 (= cell_1_2 1)))
 (or $x3345 $x3371 $x6386 $x6611 $x2497 $x2142 $x3664 $x2738 $x2355)))))))))))
(assert
 (let (($x2494 (= cell_2_2 1)))
 (or $x2494 (= cell_2_2 2) (= cell_2_2 3) (= cell_2_2 4) (= cell_2_2 5) (= cell_2_2 6) (= cell_2_2 7) (= cell_2_2 8) (= cell_2_2 9))))
(assert
 (let (($x2904 (= cell_3_2 9)))
 (let (($x519 (= cell_3_2 8)))
 (let (($x1753 (= cell_3_2 7)))
 (let (($x2041 (= cell_3_2 6)))
 (let (($x397 (= cell_3_2 5)))
 (let (($x606 (= cell_3_2 4)))
 (let (($x4975 (= cell_3_2 3)))
 (let (($x6722 (= cell_3_2 2)))
 (let (($x6677 (= cell_3_2 1)))
 (or $x6677 $x6722 $x4975 $x606 $x397 $x2041 $x1753 $x519 $x2904)))))))))))
(assert
 (let (($x340 (= cell_4_2 9)))
 (let (($x6387 (= cell_4_2 8)))
 (let (($x6709 (= cell_4_2 7)))
 (let (($x4935 (= cell_4_2 6)))
 (let (($x4926 (= cell_4_2 5)))
 (let (($x3475 (= cell_4_2 4)))
 (let (($x5888 (= cell_4_2 3)))
 (let (($x3879 (= cell_4_2 2)))
 (let (($x252 (= cell_4_2 1)))
 (or $x252 $x3879 $x5888 $x3475 $x4926 $x4935 $x6709 $x6387 $x340)))))))))))
(assert
 (let (($x412 (= cell_5_2 1)))
 (or $x412 (= cell_5_2 2) (= cell_5_2 3) (= cell_5_2 4) (= cell_5_2 5) (= cell_5_2 6) (= cell_5_2 7) (= cell_5_2 8) (= cell_5_2 9))))
(assert
 (let (($x4755 (= cell_6_2 1)))
 (or $x4755 (= cell_6_2 2) (= cell_6_2 3) (= cell_6_2 4) (= cell_6_2 5) (= cell_6_2 6) (= cell_6_2 7) (= cell_6_2 8) (= cell_6_2 9))))
(assert
 (let (($x2190 (= cell_7_2 1)))
 (or $x2190 (= cell_7_2 2) (= cell_7_2 3) (= cell_7_2 4) (= cell_7_2 5) (= cell_7_2 6) (= cell_7_2 7) (= cell_7_2 8) (= cell_7_2 9))))
(assert
 (let (($x2853 (= cell_8_2 1)))
 (or $x2853 (= cell_8_2 2) (= cell_8_2 3) (= cell_8_2 4) (= cell_8_2 5) (= cell_8_2 6) (= cell_8_2 7) (= cell_8_2 8) (= cell_8_2 9))))
(assert
 (let (($x123 (= cell_9_2 1)))
 (or $x123 (= cell_9_2 2) (= cell_9_2 3) (= cell_9_2 4) (= cell_9_2 5) (= cell_9_2 6) (= cell_9_2 7) (= cell_9_2 8) (= cell_9_2 9))))
(assert
 (let (($x826 (= cell_1_3 9)))
 (let (($x3028 (= cell_1_3 8)))
 (let (($x2088 (= cell_1_3 7)))
 (let (($x3189 (= cell_1_3 6)))
 (let (($x1202 (= cell_1_3 5)))
 (let (($x1975 (= cell_1_3 4)))
 (let (($x6408 (= cell_1_3 3)))
 (let (($x398 (= cell_1_3 2)))
 (let (($x15 (= cell_1_3 1)))
 (or $x15 $x398 $x6408 $x1975 $x1202 $x3189 $x2088 $x3028 $x826)))))))))))
(assert
 (let (($x5534 (= cell_2_3 9)))
 (let (($x2596 (= cell_2_3 8)))
 (let (($x1697 (= cell_2_3 7)))
 (let (($x743 (= cell_2_3 6)))
 (let (($x5518 (= cell_2_3 5)))
 (let (($x2323 (= cell_2_3 4)))
 (let (($x6278 (= cell_2_3 3)))
 (let (($x2324 (= cell_2_3 2)))
 (let (($x4824 (= cell_2_3 1)))
 (or $x4824 $x2324 $x6278 $x2323 $x5518 $x743 $x1697 $x2596 $x5534)))))))))))
(assert
 (let (($x5588 (= cell_3_3 9)))
 (let (($x6306 (= cell_3_3 8)))
 (let (($x1890 (= cell_3_3 7)))
 (let (($x314 (= cell_3_3 6)))
 (let (($x2739 (= cell_3_3 5)))
 (let (($x5452 (= cell_3_3 4)))
 (let (($x5247 (= cell_3_3 3)))
 (let (($x6407 (= cell_3_3 2)))
 (let (($x1869 (= cell_3_3 1)))
 (or $x1869 $x6407 $x5247 $x5452 $x2739 $x314 $x1890 $x6306 $x5588)))))))))))
(assert
 (let (($x1049 (= cell_4_3 9)))
 (let (($x4877 (= cell_4_3 8)))
 (let (($x4796 (= cell_4_3 7)))
 (let (($x2230 (= cell_4_3 6)))
 (let (($x1396 (= cell_4_3 5)))
 (let (($x3033 (= cell_4_3 4)))
 (let (($x3428 (= cell_4_3 3)))
 (let (($x1814 (= cell_4_3 2)))
 (let (($x6275 (= cell_4_3 1)))
 (or $x6275 $x1814 $x3428 $x3033 $x1396 $x2230 $x4796 $x4877 $x1049)))))))))))
(assert
 (or (= cell_5_3 1) (= cell_5_3 2) (= cell_5_3 3) (= cell_5_3 4) (= cell_5_3 5) (= cell_5_3 6) (= cell_5_3 7) (= cell_5_3 8) (= cell_5_3 9)))
(assert
 (let (($x3834 (= cell_6_3 1)))
 (or $x3834 (= cell_6_3 2) (= cell_6_3 3) (= cell_6_3 4) (= cell_6_3 5) (= cell_6_3 6) (= cell_6_3 7) (= cell_6_3 8) (= cell_6_3 9))))
(assert
 (or (= cell_7_3 1) (= cell_7_3 2) (= cell_7_3 3) (= cell_7_3 4) (= cell_7_3 5) (= cell_7_3 6) (= cell_7_3 7) (= cell_7_3 8) (= cell_7_3 9)))
(assert
 (or (= cell_8_3 1) (= cell_8_3 2) (= cell_8_3 3) (= cell_8_3 4) (= cell_8_3 5) (= cell_8_3 6) (= cell_8_3 7) (= cell_8_3 8) (= cell_8_3 9)))
(assert
 (or (= cell_9_3 1) (= cell_9_3 2) (= cell_9_3 3) (= cell_9_3 4) (= cell_9_3 5) (= cell_9_3 6) (= cell_9_3 7) (= cell_9_3 8) (= cell_9_3 9)))
(assert
 (let (($x2058 (= cell_1_4 9)))
 (let (($x2979 (= cell_1_4 8)))
 (let (($x953 (= cell_1_4 7)))
 (let (($x3453 (= cell_1_4 6)))
 (let (($x1786 (= cell_1_4 5)))
 (let (($x1695 (= cell_1_4 4)))
 (let (($x6124 (= cell_1_4 3)))
 (let (($x2191 (= cell_1_4 2)))
 (let (($x1674 (= cell_1_4 1)))
 (or $x1674 $x2191 $x6124 $x1695 $x1786 $x3453 $x953 $x2979 $x2058)))))))))))
(assert
 (let (($x2655 (= cell_2_4 9)))
 (let (($x2416 (= cell_2_4 8)))
 (let (($x2451 (= cell_2_4 7)))
 (let (($x5372 (= cell_2_4 6)))
 (let (($x575 (= cell_2_4 5)))
 (let (($x2802 (= cell_2_4 4)))
 (let (($x2413 (= cell_2_4 3)))
 (let (($x1463 (= cell_2_4 2)))
 (let (($x3862 (= cell_2_4 1)))
 (or $x3862 $x1463 $x2413 $x2802 $x575 $x5372 $x2451 $x2416 $x2655)))))))))))
(assert
 (let (($x378 (= cell_3_4 1)))
 (or $x378 (= cell_3_4 2) (= cell_3_4 3) (= cell_3_4 4) (= cell_3_4 5) (= cell_3_4 6) (= cell_3_4 7) (= cell_3_4 8) (= cell_3_4 9))))
(assert
 (let (($x3405 (= cell_4_4 9)))
 (let (($x1976 (= cell_4_4 8)))
 (let (($x1494 (= cell_4_4 7)))
 (let (($x4820 (= cell_4_4 6)))
 (let (($x3191 (= cell_4_4 5)))
 (let (($x233 (= cell_4_4 4)))
 (let (($x3823 (= cell_4_4 3)))
 (let (($x2297 (= cell_4_4 2)))
 (let (($x4878 (= cell_4_4 1)))
 (or $x4878 $x2297 $x3823 $x233 $x3191 $x4820 $x1494 $x1976 $x3405)))))))))))
(assert
 (let (($x2422 (= cell_5_4 1)))
 (or $x2422 (= cell_5_4 2) (= cell_5_4 3) (= cell_5_4 4) (= cell_5_4 5) (= cell_5_4 6) (= cell_5_4 7) (= cell_5_4 8) (= cell_5_4 9))))
(assert
 (let (($x5261 (= cell_6_4 1)))
 (or $x5261 (= cell_6_4 2) (= cell_6_4 3) (= cell_6_4 4) (= cell_6_4 5) (= cell_6_4 6) (= cell_6_4 7) (= cell_6_4 8) (= cell_6_4 9))))
(assert
 (let (($x3590 (= cell_7_4 1)))
 (or $x3590 (= cell_7_4 2) (= cell_7_4 3) (= cell_7_4 4) (= cell_7_4 5) (= cell_7_4 6) (= cell_7_4 7) (= cell_7_4 8) (= cell_7_4 9))))
(assert
 (let (($x210 (= cell_8_4 1)))
 (or $x210 (= cell_8_4 2) (= cell_8_4 3) (= cell_8_4 4) (= cell_8_4 5) (= cell_8_4 6) (= cell_8_4 7) (= cell_8_4 8) (= cell_8_4 9))))
(assert
 (let (($x5244 (= cell_9_4 1)))
 (or $x5244 (= cell_9_4 2) (= cell_9_4 3) (= cell_9_4 4) (= cell_9_4 5) (= cell_9_4 6) (= cell_9_4 7) (= cell_9_4 8) (= cell_9_4 9))))
(assert
 (let (($x214 (= cell_1_5 9)))
 (let (($x3072 (= cell_1_5 8)))
 (let (($x4931 (= cell_1_5 7)))
 (let (($x3637 (= cell_1_5 6)))
 (let (($x3397 (= cell_1_5 5)))
 (let (($x1561 (= cell_1_5 4)))
 (let (($x4729 (= cell_1_5 3)))
 (let (($x1155 (= cell_1_5 2)))
 (let (($x3824 (= cell_1_5 1)))
 (or $x3824 $x1155 $x4729 $x1561 $x3397 $x3637 $x4931 $x3072 $x214)))))))))))
(assert
 (let (($x2764 (= cell_2_5 9)))
 (let (($x1505 (= cell_2_5 8)))
 (let (($x1259 (= cell_2_5 7)))
 (let (($x1993 (= cell_2_5 6)))
 (let (($x5983 (= cell_2_5 5)))
 (let (($x5084 (= cell_2_5 4)))
 (let (($x5366 (= cell_2_5 3)))
 (let (($x3416 (= cell_2_5 2)))
 (let (($x3598 (= cell_2_5 1)))
 (or $x3598 $x3416 $x5366 $x5084 $x5983 $x1993 $x1259 $x1505 $x2764)))))))))))
(assert
 (let (($x5716 (= cell_3_5 1)))
 (or $x5716 (= cell_3_5 2) (= cell_3_5 3) (= cell_3_5 4) (= cell_3_5 5) (= cell_3_5 6) (= cell_3_5 7) (= cell_3_5 8) (= cell_3_5 9))))
(assert
 (let (($x1170 (= cell_4_5 9)))
 (let (($x5887 (= cell_4_5 8)))
 (let (($x1844 (= cell_4_5 7)))
 (let (($x755 (= cell_4_5 6)))
 (let (($x4859 (= cell_4_5 5)))
 (let (($x3909 (= cell_4_5 4)))
 (let (($x1258 (= cell_4_5 3)))
 (let (($x4860 (= cell_4_5 2)))
 (let (($x2137 (= cell_4_5 1)))
 (or $x2137 $x4860 $x1258 $x3909 $x4859 $x755 $x1844 $x5887 $x1170)))))))))))
(assert
 (or (= cell_5_5 1) (= cell_5_5 2) (= cell_5_5 3) (= cell_5_5 4) (= cell_5_5 5) (= cell_5_5 6) (= cell_5_5 7) (= cell_5_5 8) (= cell_5_5 9)))
(assert
 (or (= cell_6_5 1) (= cell_6_5 2) (= cell_6_5 3) (= cell_6_5 4) (= cell_6_5 5) (= cell_6_5 6) (= cell_6_5 7) (= cell_6_5 8) (= cell_6_5 9)))
(assert
 (or (= cell_7_5 1) (= cell_7_5 2) (= cell_7_5 3) (= cell_7_5 4) (= cell_7_5 5) (= cell_7_5 6) (= cell_7_5 7) (= cell_7_5 8) (= cell_7_5 9)))
(assert
 (or (= cell_8_5 1) (= cell_8_5 2) (= cell_8_5 3) (= cell_8_5 4) (= cell_8_5 5) (= cell_8_5 6) (= cell_8_5 7) (= cell_8_5 8) (= cell_8_5 9)))
(assert
 (or (= cell_9_5 1) (= cell_9_5 2) (= cell_9_5 3) (= cell_9_5 4) (= cell_9_5 5) (= cell_9_5 6) (= cell_9_5 7) (= cell_9_5 8) (= cell_9_5 9)))
(assert
 (let (($x2236 (= cell_1_6 9)))
 (let (($x3388 (= cell_1_6 8)))
 (let (($x641 (= cell_1_6 7)))
 (let (($x1001 (= cell_1_6 6)))
 (let (($x6281 (= cell_1_6 5)))
 (let (($x3752 (= cell_1_6 4)))
 (let (($x3137 (= cell_1_6 3)))
 (let (($x2435 (= cell_1_6 2)))
 (let (($x678 (= cell_1_6 1)))
 (or $x678 $x2435 $x3137 $x3752 $x6281 $x1001 $x641 $x3388 $x2236)))))))))))
(assert
 (let (($x922 (= cell_2_6 9)))
 (let (($x4742 (= cell_2_6 8)))
 (let (($x1474 (= cell_2_6 7)))
 (let (($x5505 (= cell_2_6 6)))
 (let (($x383 (= cell_2_6 5)))
 (let (($x2059 (= cell_2_6 4)))
 (let (($x490 (= cell_2_6 3)))
 (let (($x5801 (= cell_2_6 2)))
 (let (($x2057 (= cell_2_6 1)))
 (or $x2057 $x5801 $x490 $x2059 $x383 $x5505 $x1474 $x4742 $x922)))))))))))
(assert
 (let (($x2811 (= cell_3_6 1)))
 (or $x2811 (= cell_3_6 2) (= cell_3_6 3) (= cell_3_6 4) (= cell_3_6 5) (= cell_3_6 6) (= cell_3_6 7) (= cell_3_6 8) (= cell_3_6 9))))
(assert
 (let (($x1767 (= cell_4_6 9)))
 (let (($x5907 (= cell_4_6 8)))
 (let (($x726 (= cell_4_6 7)))
 (let (($x465 (= cell_4_6 6)))
 (let (($x5508 (= cell_4_6 5)))
 (let (($x4121 (= cell_4_6 4)))
 (let (($x607 (= cell_4_6 3)))
 (let (($x1357 (= cell_4_6 2)))
 (let (($x4827 (= cell_4_6 1)))
 (or $x4827 $x1357 $x607 $x4121 $x5508 $x465 $x726 $x5907 $x1767)))))))))))
(assert
 (let (($x3889 (= cell_5_6 1)))
 (or $x3889 (= cell_5_6 2) (= cell_5_6 3) (= cell_5_6 4) (= cell_5_6 5) (= cell_5_6 6) (= cell_5_6 7) (= cell_5_6 8) (= cell_5_6 9))))
(assert
 (or (= cell_6_6 1) (= cell_6_6 2) (= cell_6_6 3) (= cell_6_6 4) (= cell_6_6 5) (= cell_6_6 6) (= cell_6_6 7) (= cell_6_6 8) (= cell_6_6 9)))
(assert
 (or (= cell_7_6 1) (= cell_7_6 2) (= cell_7_6 3) (= cell_7_6 4) (= cell_7_6 5) (= cell_7_6 6) (= cell_7_6 7) (= cell_7_6 8) (= cell_7_6 9)))
(assert
 (or (= cell_8_6 1) (= cell_8_6 2) (= cell_8_6 3) (= cell_8_6 4) (= cell_8_6 5) (= cell_8_6 6) (= cell_8_6 7) (= cell_8_6 8) (= cell_8_6 9)))
(assert
 (or (= cell_9_6 1) (= cell_9_6 2) (= cell_9_6 3) (= cell_9_6 4) (= cell_9_6 5) (= cell_9_6 6) (= cell_9_6 7) (= cell_9_6 8) (= cell_9_6 9)))
(assert
 (let (($x128 (= cell_1_7 9)))
 (let (($x1899 (= cell_1_7 8)))
 (let (($x2449 (= cell_1_7 7)))
 (let (($x1863 (= cell_1_7 6)))
 (let (($x5329 (= cell_1_7 5)))
 (let (($x1256 (= cell_1_7 4)))
 (let (($x564 (= cell_1_7 3)))
 (let (($x945 (= cell_1_7 2)))
 (let (($x979 (= cell_1_7 1)))
 (or $x979 $x945 $x564 $x1256 $x5329 $x1863 $x2449 $x1899 $x128)))))))))))
(assert
 (let (($x5870 (= cell_2_7 1)))
 (or $x5870 (= cell_2_7 2) (= cell_2_7 3) (= cell_2_7 4) (= cell_2_7 5) (= cell_2_7 6) (= cell_2_7 7) (= cell_2_7 8) (= cell_2_7 9))))
(assert
 (let (($x1633 (= cell_3_7 1)))
 (or $x1633 (= cell_3_7 2) (= cell_3_7 3) (= cell_3_7 4) (= cell_3_7 5) (= cell_3_7 6) (= cell_3_7 7) (= cell_3_7 8) (= cell_3_7 9))))
(assert
 (let (($x2876 (= cell_4_7 9)))
 (let (($x1093 (= cell_4_7 8)))
 (let (($x5022 (= cell_4_7 7)))
 (let (($x3509 (= cell_4_7 6)))
 (let (($x149 (= cell_4_7 5)))
 (let (($x2144 (= cell_4_7 4)))
 (let (($x3272 (= cell_4_7 3)))
 (let (($x3120 (= cell_4_7 2)))
 (let (($x4066 (= cell_4_7 1)))
 (or $x4066 $x3120 $x3272 $x2144 $x149 $x3509 $x5022 $x1093 $x2876)))))))))))
(assert
 (let (($x3638 (= cell_5_7 1)))
 (or $x3638 (= cell_5_7 2) (= cell_5_7 3) (= cell_5_7 4) (= cell_5_7 5) (= cell_5_7 6) (= cell_5_7 7) (= cell_5_7 8) (= cell_5_7 9))))
(assert
 (let (($x3640 (= cell_6_7 1)))
 (or $x3640 (= cell_6_7 2) (= cell_6_7 3) (= cell_6_7 4) (= cell_6_7 5) (= cell_6_7 6) (= cell_6_7 7) (= cell_6_7 8) (= cell_6_7 9))))
(assert
 (or (= cell_7_7 1) (= cell_7_7 2) (= cell_7_7 3) (= cell_7_7 4) (= cell_7_7 5) (= cell_7_7 6) (= cell_7_7 7) (= cell_7_7 8) (= cell_7_7 9)))
(assert
 (or (= cell_8_7 1) (= cell_8_7 2) (= cell_8_7 3) (= cell_8_7 4) (= cell_8_7 5) (= cell_8_7 6) (= cell_8_7 7) (= cell_8_7 8) (= cell_8_7 9)))
(assert
 (or (= cell_9_7 1) (= cell_9_7 2) (= cell_9_7 3) (= cell_9_7 4) (= cell_9_7 5) (= cell_9_7 6) (= cell_9_7 7) (= cell_9_7 8) (= cell_9_7 9)))
(assert
 (let (($x4881 (= cell_1_8 1)))
 (or $x4881 (= cell_1_8 2) (= cell_1_8 3) (= cell_1_8 4) (= cell_1_8 5) (= cell_1_8 6) (= cell_1_8 7) (= cell_1_8 8) (= cell_1_8 9))))
(assert
 (let (($x3363 (= cell_2_8 1)))
 (or $x3363 (= cell_2_8 2) (= cell_2_8 3) (= cell_2_8 4) (= cell_2_8 5) (= cell_2_8 6) (= cell_2_8 7) (= cell_2_8 8) (= cell_2_8 9))))
(assert
 (let (($x594 (= cell_3_8 1)))
 (or $x594 (= cell_3_8 2) (= cell_3_8 3) (= cell_3_8 4) (= cell_3_8 5) (= cell_3_8 6) (= cell_3_8 7) (= cell_3_8 8) (= cell_3_8 9))))
(assert
 (let (($x6383 (= cell_4_8 9)))
 (let (($x188 (= cell_4_8 8)))
 (let (($x4974 (= cell_4_8 7)))
 (let (($x3673 (= cell_4_8 6)))
 (let (($x1855 (= cell_4_8 5)))
 (let (($x655 (= cell_4_8 4)))
 (let (($x3228 (= cell_4_8 3)))
 (let (($x937 (= cell_4_8 2)))
 (let (($x263 (= cell_4_8 1)))
 (or $x263 $x937 $x3228 $x655 $x1855 $x3673 $x4974 $x188 $x6383)))))))))))
(assert
 (let (($x2569 (= cell_5_8 1)))
 (or $x2569 (= cell_5_8 2) (= cell_5_8 3) (= cell_5_8 4) (= cell_5_8 5) (= cell_5_8 6) (= cell_5_8 7) (= cell_5_8 8) (= cell_5_8 9))))
(assert
 (let (($x2942 (= cell_6_8 1)))
 (or $x2942 (= cell_6_8 2) (= cell_6_8 3) (= cell_6_8 4) (= cell_6_8 5) (= cell_6_8 6) (= cell_6_8 7) (= cell_6_8 8) (= cell_6_8 9))))
(assert
 (let (($x2496 (= cell_7_8 1)))
 (or $x2496 (= cell_7_8 2) (= cell_7_8 3) (= cell_7_8 4) (= cell_7_8 5) (= cell_7_8 6) (= cell_7_8 7) (= cell_7_8 8) (= cell_7_8 9))))
(assert
 (let (($x1877 (= cell_8_8 1)))
 (or $x1877 (= cell_8_8 2) (= cell_8_8 3) (= cell_8_8 4) (= cell_8_8 5) (= cell_8_8 6) (= cell_8_8 7) (= cell_8_8 8) (= cell_8_8 9))))
(assert
 (let (($x3683 (= cell_9_8 1)))
 (or $x3683 (= cell_9_8 2) (= cell_9_8 3) (= cell_9_8 4) (= cell_9_8 5) (= cell_9_8 6) (= cell_9_8 7) (= cell_9_8 8) (= cell_9_8 9))))
(assert
 (let (($x3799 (= cell_1_9 9)))
 (let (($x4749 (= cell_1_9 8)))
 (let (($x5322 (= cell_1_9 7)))
 (let (($x3268 (= cell_1_9 6)))
 (let (($x2524 (= cell_1_9 5)))
 (let (($x5779 (= cell_1_9 4)))
 (let (($x5817 (= cell_1_9 3)))
 (let (($x3861 (= cell_1_9 2)))
 (let (($x741 (= cell_1_9 1)))
 (or $x741 $x3861 $x5817 $x5779 $x2524 $x3268 $x5322 $x4749 $x3799)))))))))))
(assert
 (let (($x3647 (= cell_2_9 9)))
 (let (($x2402 (= cell_2_9 8)))
 (let (($x5152 (= cell_2_9 7)))
 (let (($x2375 (= cell_2_9 6)))
 (let (($x2563 (= cell_2_9 5)))
 (let (($x5842 (= cell_2_9 4)))
 (let (($x6410 (= cell_2_9 3)))
 (let (($x2939 (= cell_2_9 2)))
 (let (($x535 (= cell_2_9 1)))
 (or $x535 $x2939 $x6410 $x5842 $x2563 $x2375 $x5152 $x2402 $x3647)))))))))))
(assert
 (let (($x1933 (= cell_3_9 9)))
 (let (($x1384 (= cell_3_9 8)))
 (let (($x4880 (= cell_3_9 7)))
 (let (($x6143 (= cell_3_9 6)))
 (let (($x2566 (= cell_3_9 5)))
 (let (($x2915 (= cell_3_9 4)))
 (let (($x3312 (= cell_3_9 3)))
 (let (($x2122 (= cell_3_9 2)))
 (let (($x4068 (= cell_3_9 1)))
 (or $x4068 $x2122 $x3312 $x2915 $x2566 $x6143 $x4880 $x1384 $x1933)))))))))))
(assert
 (let (($x522 (= cell_4_9 1)))
 (or $x522 (= cell_4_9 2) (= cell_4_9 3) (= cell_4_9 4) (= cell_4_9 5) (= cell_4_9 6) (= cell_4_9 7) (= cell_4_9 8) (= cell_4_9 9))))
(assert
 (let (($x6055 (= cell_5_9 1)))
 (or $x6055 (= cell_5_9 2) (= cell_5_9 3) (= cell_5_9 4) (= cell_5_9 5) (= cell_5_9 6) (= cell_5_9 7) (= cell_5_9 8) (= cell_5_9 9))))
(assert
 (let (($x184 (= cell_6_9 1)))
 (or $x184 (= cell_6_9 2) (= cell_6_9 3) (= cell_6_9 4) (= cell_6_9 5) (= cell_6_9 6) (= cell_6_9 7) (= cell_6_9 8) (= cell_6_9 9))))
(assert
 (let (($x419 (= cell_7_9 1)))
 (or $x419 (= cell_7_9 2) (= cell_7_9 3) (= cell_7_9 4) (= cell_7_9 5) (= cell_7_9 6) (= cell_7_9 7) (= cell_7_9 8) (= cell_7_9 9))))
(assert
 (let (($x3139 (= cell_8_9 1)))
 (or $x3139 (= cell_8_9 2) (= cell_8_9 3) (= cell_8_9 4) (= cell_8_9 5) (= cell_8_9 6) (= cell_8_9 7) (= cell_8_9 8) (= cell_8_9 9))))
(assert
 (let (($x1558 (= cell_9_9 1)))
 (or $x1558 (= cell_9_9 2) (= cell_9_9 3) (= cell_9_9 4) (= cell_9_9 5) (= cell_9_9 6) (= cell_9_9 7) (= cell_9_9 8) (= cell_9_9 9))))
(assert
 (and (distinct cell_1_1 cell_1_2 cell_1_3 cell_1_4 cell_1_5 cell_1_6 cell_1_7 cell_1_8 cell_1_9) true))
(assert
 (and (distinct cell_2_1 cell_2_2 cell_2_3 cell_2_4 cell_2_5 cell_2_6 cell_2_7 cell_2_8 cell_2_9) true))
(assert
 (and (distinct cell_3_1 cell_3_2 cell_3_3 cell_3_4 cell_3_5 cell_3_6 cell_3_7 cell_3_8 cell_3_9) true))
(assert
 (and (distinct cell_4_1 cell_4_2 cell_4_3 cell_4_4 cell_4_5 cell_4_6 cell_4_7 cell_4_8 cell_4_9) true))
(assert
 (and (distinct cell_5_1 cell_5_2 cell_5_3 cell_5_4 cell_5_5 cell_5_6 cell_5_7 cell_5_8 cell_5_9) true))
(assert
 (and (distinct cell_6_1 cell_6_2 cell_6_3 cell_6_4 cell_6_5 cell_6_6 cell_6_7 cell_6_8 cell_6_9) true))
(assert
 (and (distinct cell_7_1 cell_7_2 cell_7_3 cell_7_4 cell_7_5 cell_7_6 cell_7_7 cell_7_8 cell_7_9) true))
(assert
 (and (distinct cell_8_1 cell_8_2 cell_8_3 cell_8_4 cell_8_5 cell_8_6 cell_8_7 cell_8_8 cell_8_9) true))
(assert
 (and (distinct cell_9_1 cell_9_2 cell_9_3 cell_9_4 cell_9_5 cell_9_6 cell_9_7 cell_9_8 cell_9_9) true))
(assert
 (and (distinct cell_1_1 cell_2_1 cell_3_1 cell_4_1 cell_5_1 cell_6_1 cell_7_1 cell_8_1 cell_9_1) true))
(assert
 (and (distinct cell_1_2 cell_2_2 cell_3_2 cell_4_2 cell_5_2 cell_6_2 cell_7_2 cell_8_2 cell_9_2) true))
(assert
 (and (distinct cell_1_3 cell_2_3 cell_3_3 cell_4_3 cell_5_3 cell_6_3 cell_7_3 cell_8_3 cell_9_3) true))
(assert
 (and (distinct cell_1_4 cell_2_4 cell_3_4 cell_4_4 cell_5_4 cell_6_4 cell_7_4 cell_8_4 cell_9_4) true))
(assert
 (and (distinct cell_1_5 cell_2_5 cell_3_5 cell_4_5 cell_5_5 cell_6_5 cell_7_5 cell_8_5 cell_9_5) true))
(assert
 (and (distinct cell_1_6 cell_2_6 cell_3_6 cell_4_6 cell_5_6 cell_6_6 cell_7_6 cell_8_6 cell_9_6) true))
(assert
 (and (distinct cell_1_7 cell_2_7 cell_3_7 cell_4_7 cell_5_7 cell_6_7 cell_7_7 cell_8_7 cell_9_7) true))
(assert
 (and (distinct cell_1_8 cell_2_8 cell_3_8 cell_4_8 cell_5_8 cell_6_8 cell_7_8 cell_8_8 cell_9_8) true))
(assert
 (and (distinct cell_1_9 cell_2_9 cell_3_9 cell_4_9 cell_5_9 cell_6_9 cell_7_9 cell_8_9 cell_9_9) true))
(assert
 (and (distinct cell_1_1 cell_1_2 cell_1_3 cell_2_1 cell_2_2 cell_2_3 cell_3_1 cell_3_2 cell_3_3) true))
(assert
 (and (distinct cell_1_4 cell_1_5 cell_1_6 cell_2_4 cell_2_5 cell_2_6 cell_3_4 cell_3_5 cell_3_6) true))
(assert
 (and (distinct cell_1_7 cell_1_8 cell_1_9 cell_2_7 cell_2_8 cell_2_9 cell_3_7 cell_3_8 cell_3_9) true))
(assert
 (and (distinct cell_4_1 cell_4_2 cell_4_3 cell_5_1 cell_5_2 cell_5_3 cell_6_1 cell_6_2 cell_6_3) true))
(assert
 (and (distinct cell_4_4 cell_4_5 cell_4_6 cell_5_4 cell_5_5 cell_5_6 cell_6_4 cell_6_5 cell_6_6) true))
(assert
 (and (distinct cell_4_7 cell_4_8 cell_4_9 cell_5_7 cell_5_8 cell_5_9 cell_6_7 cell_6_8 cell_6_9) true))
(assert
 (and (distinct cell_7_1 cell_7_2 cell_7_3 cell_8_1 cell_8_2 cell_8_3 cell_9_1 cell_9_2 cell_9_3) true))
(assert
 (and (distinct cell_7_4 cell_7_5 cell_7_6 cell_8_4 cell_8_5 cell_8_6 cell_9_4 cell_9_5 cell_9_6) true))
(assert
 (and (distinct cell_7_7 cell_7_8 cell_7_9 cell_8_7 cell_8_8 cell_8_9 cell_9_7 cell_9_8 cell_9_9) true))
(assert
 (let (($x1498 (and (distinct cell_5_9 cell_6_8 cell_7_7 cell_8_6) true)))
 (let (($x1690 (and (distinct cell_2_9 cell_3_8 cell_4_7 cell_5_6 cell_6_5 cell_7_4 cell_8_3 cell_9_2) true)))
 (let (($x3805 (and (distinct cell_1_8 cell_2_7 cell_3_6 cell_4_5 cell_5_4 cell_6_3 cell_7_2 cell_8_1) true)))
 (let (($x6684 (and (distinct cell_1_5 cell_2_4 cell_3_3 cell_4_2) true)))
 (let (($x1793 (and (distinct cell_5_1 cell_6_2 cell_7_3 cell_8_4) true)))
 (let (($x2664 (and (distinct cell_2_1 cell_3_2 cell_4_3 cell_5_4 cell_6_5 cell_7_6 cell_8_7 cell_9_8) true)))
 (let (($x2503 (and (distinct cell_1_2 cell_2_3 cell_3_4 cell_4_5 cell_5_6 cell_6_7 cell_7_8 cell_8_9) true)))
 (let (($x5315 (and (distinct cell_1_5 cell_2_6 cell_3_7 cell_4_8) true)))
 (and $x5315 $x2503 $x2664 $x1793 $x6684 $x3805 $x1690 $x1498))))))))))
(assert
 (= cell_5_1 1))
(check-sat)
